32	0

0	1	2
10	1	3
8	1	4
2	1	5
8	1	6
7	1	7
1	1	8
9	1	9
9	1	10
6	1	11
9	1	12
8	1	13
2	1	14
5	1	15
8	1	16
1	1	17
1	1	18
7	1	19
5	1	20
9	1	21
5	1	22
2	1	23
3	1	24
10	1	25
6	1	26
4	1	27
2	1	28
3	1	29
2	1	30
2	1	31
1	1	32
0	0
